415 416 414 413 353 354 355 357 358 359 360 401 402 403 400 406 407 408 405 404 409 385 387 386 382 383 384 356 412 411 410 418 417 419 420 421 422 423 424 425 426 427 428 429 431 430 432 433 434 435 436 437 438 439 443 444 445 442 446 447 448 449 450 441 440 453 452 499 500 501 498 502 503 504 505 308 309 310 311 451 312 313 316 314 315 377 378 379 380 381 390 389 388 391 392 393 394 397 399 398 371 396 395 375 376 374 373 372 370 369 368 365 367 366 329 328 327 326 325 324 323 322 321 320 319 317 318 305 306 304 307 303 301 302 508 507 506 509 510 511 528 529 490 486 487 535 536 484 485 483 481 482 475 476 480 479 477 478 564 549 548 551 101 102 100 99 552 553 554 98 96 95 97 94 93 92 91 46 45 555 556 557 558 559 550 560 561 562 563 565 566 567 568 569 570 474 473 472 471 495 494 524 493 491 492 525 521 522 523 526 527 512 513 514 515 516 517 520 518 519 497 496 470 469 468 467 466 465 464 463 462 461 460 459 458 457 456 454 455 2 3 4 1 0 573 571 572 5 6 7 8 9 10 11 14 15 16 17 18 19 20 21 13 12 23 22 24 25 26 27 28 29 31 30 32 33 34 35 36 37 38 40 41 39 42 43 44 47 48 49 54 53 52 50 51 84 85 86 87 90 89 88 78 79 80 81 57 82 83 55 56 58 59 60 61 63 62 64 76 77 75 74 73 119 118 120 121 122 123 117 116 115 106 105 104 103 547 546 545 544 543 541 542 107 174 173 108 109 110 111 114 112 113 131 132 133 130 129 128 127 126 125 124 70 71 72 65 66 67 68 69 138 137 134 135 136 139 140 141 151 150 149 152 148 147 142 143 144 146 145 158 157 153 156 159 155 154 160 161 162 168 163 167 166 164 165 203 204 202 201 200 199 198 205 206 207 208 209 210 211 212 213 214 215 216 217 223 224 222 221 220 218 219 193 194 195 196 197 184 185 183 182 179 181 180 169 171 170 172 175 176 177 178 540 539 537 538 187 188 186 227 189 190 192 191 226 225 228 229 230 231 533 534 488 489 532 531 530 233 232 234 235 236 237 240 239 238 246 247 245 244 243 242 241 248 249 250 251 252 254 253 255 256 257 300 299 258 259 260 261 262 263 264 265 266 298 297 296 295 294 293 270 268 267 271 269 272 273 274 275 292 291 290 289 288 276 277 278 279 282 281 280 287 286 285 284 283 334 335 336 337 338 339 333 332 331 330 340 341 342 343 344 345 346 364 363 361 362 347 348 349 350 351 352